words_hard_train/3910.qaiger
aag 179 16 0 1 163
2
4
8
14
22
38
44
54
84
92
124
132
158
188
238
288
358
6 2 4
10 2 8
12 7 11
16 13 14
18 12 15
20 17 19
24 3 23
26 2 22
28 25 27
30 28 9
32 10 5
34 11 4
36 33 35
40 22 38
42 23 39
46 43 45
48 41 46
50 38 44
52 49 51
56 52 55
58 53 54
60 57 59
62 37 61
64 30 63
66 27 61
68 26 60
70 67 69
72 29 71
74 65 73
76 36 70
78 74 77
80 20 78
82 69 59
86 47 84
88 46 85
90 87 89
94 90 93
96 91 92
98 95 97
100 82 99
102 83 98
104 101 103
106 73 104
108 72 105
110 107 109
112 81 111
114 21 79
116 113 115
118 103 97
120 42 85
122 121 45
126 123 125
128 122 124
130 127 129
134 131 133
136 130 132
138 135 137
140 118 139
142 119 138
144 141 143
146 109 144
148 108 145
150 147 149
152 116 150
154 2 14
156 12 155
160 157 158
162 156 159
164 161 163
166 153 165
168 117 151
170 167 169
172 2 158
174 156 173
176 175 133
178 174 132
180 177 179
182 143 137
184 120 125
186 185 45
190 187 189
192 186 188
194 191 193
196 195 159
198 194 158
200 197 199
202 182 201
204 183 200
206 203 205
208 149 206
210 148 207
212 209 211
214 181 212
216 171 215
218 180 213
220 217 219
222 2 132
224 174 223
226 225 92
228 224 93
230 227 229
232 205 199
234 184 189
236 235 45
240 237 239
242 236 238
244 241 243
246 245 15
248 244 14
250 247 249
252 232 251
254 233 250
256 253 255
258 211 256
260 210 257
262 259 261
264 230 262
266 221 265
268 231 263
270 267 269
272 2 92
274 224 273
276 275 54
278 274 55
280 277 279
282 255 249
284 234 239
286 285 45
290 287 289
292 286 288
294 291 293
296 295 5
298 294 4
300 297 299
302 282 301
304 283 300
306 303 305
308 261 306
310 260 307
312 309 311
314 280 312
316 271 315
318 281 313
320 317 319
322 321 311
324 284 45
326 324 289
328 326 9
330 327 8
332 329 331
334 305 299
336 333 335
338 332 334
340 337 339
342 278 2
344 341 343
346 322 345
348 320 310
350 344 348
352 347 351
354 340 342
356 354 349
358 352 357
i0 1 x2[7]
i1 1 x2[1]
i2 1 x2[0]
i3 1 x2[2]
i4 2 y1[0]
i5 2 y1[1]
i6 2 y1[7]
i7 1 x2[6]
i8 2 y1[2]
i9 1 x2[5]
i10 2 y1[3]
i11 1 x2[4]
i12 1 x2[3]
i13 2 y1[4]
i14 2 y1[5]
i15 2 y1[6]
o0 bv[0]
c
simplified
  <=
    subtract
      reverse
        1 x2
      abs
        2 y1
    abs
      1 x2
