words_hard_train/3910.qaiger.qdimacs
p cnf 179 490
a 1 2 66 4 7 46 79 27 0
e 3 5 6 8 9 10 11 12 13 14 15 16 17 18 19 20 21 22 23 24 25 26 28 29 30 31 32 33 34 35 36 37 38 39 40 41 42 43 44 45 47 48 49 50 51 52 53 54 55 56 57 58 59 60 61 62 63 64 65 67 68 69 70 71 72 73 74 75 76 77 78 80 81 82 83 84 85 86 87 88 89 90 91 92 93 94 95 96 97 98 99 100 101 102 103 104 105 106 107 108 109 110 111 112 113 114 115 116 117 118 119 120 121 122 123 124 125 126 127 128 129 130 131 132 133 134 135 136 137 138 139 140 141 142 143 144 145 146 147 148 149 150 151 152 153 154 155 156 157 158 159 160 161 162 163 164 165 166 167 168 169 170 171 172 173 174 175 176 177 178 179 0
-1 -2 3 0
1 -3 0
2 -3 0
-1 -4 5 0
1 -5 0
4 -5 0
3 5 6 0
-3 -6 0
-5 -6 0
6 -7 8 0
-6 -8 0
7 -8 0
-6 7 9 0
6 -9 0
-7 -9 0
8 9 10 0
-8 -10 0
-9 -10 0
1 11 12 0
-1 -12 0
-11 -12 0
-1 -11 13 0
1 -13 0
11 -13 0
12 13 14 0
-12 -14 0
-13 -14 0
-14 4 15 0
14 -15 0
-4 -15 0
-5 2 16 0
5 -16 0
-2 -16 0
5 -2 17 0
-5 -17 0
2 -17 0
16 17 18 0
-16 -18 0
-17 -18 0
-11 -19 20 0
11 -20 0
19 -20 0
11 19 21 0
-11 -21 0
-19 -21 0
21 22 23 0
-21 -23 0
-22 -23 0
20 -23 24 0
-20 -24 0
23 -24 0
-19 -22 25 0
19 -25 0
22 -25 0
24 25 26 0
-24 -26 0
-25 -26 0
-26 27 28 0
26 -28 0
-27 -28 0
26 -27 29 0
-26 -29 0
27 -29 0
28 29 30 0
-28 -30 0
-29 -30 0
18 30 31 0
-18 -31 0
-30 -31 0
-15 31 32 0
15 -32 0
-31 -32 0
13 30 33 0
-13 -33 0
-30 -33 0
-13 -30 34 0
13 -34 0
30 -34 0
33 34 35 0
-33 -35 0
-34 -35 0
14 35 36 0
-14 -36 0
-35 -36 0
32 36 37 0
-32 -37 0
-36 -37 0
-18 -35 38 0
18 -38 0
35 -38 0
-37 38 39 0
37 -39 0
-38 -39 0
-10 -39 40 0
10 -40 0
39 -40 0
34 29 41 0
-34 -41 0
-29 -41 0
23 -42 43 0
-23 -43 0
42 -43 0
-23 42 44 0
23 -44 0
-42 -44 0
43 44 45 0
-43 -45 0
-44 -45 0
-45 46 47 0
45 -47 0
-46 -47 0
45 -46 48 0
-45 -48 0
46 -48 0
47 48 49 0
-47 -49 0
-48 -49 0
-41 49 50 0
41 -50 0
-49 -50 0
41 -49 51 0
-41 -51 0
49 -51 0
50 51 52 0
-50 -52 0
-51 -52 0
36 -52 53 0
-36 -53 0
52 -53 0
-36 52 54 0
36 -54 0
-52 -54 0
53 54 55 0
-53 -55 0
-54 -55 0
40 55 56 0
-40 -56 0
-55 -56 0
10 39 57 0
-10 -57 0
-39 -57 0
56 57 58 0
-56 -58 0
-57 -58 0
51 48 59 0
-51 -59 0
-48 -59 0
-21 42 60 0
21 -60 0
-42 -60 0
60 22 61 0
-60 -61 0
-22 -61 0
61 62 63 0
-61 -63 0
-62 -63 0
-61 -62 64 0
61 -64 0
62 -64 0
63 64 65 0
-63 -65 0
-64 -65 0
65 66 67 0
-65 -67 0
-66 -67 0
-65 -66 68 0
65 -68 0
66 -68 0
67 68 69 0
-67 -69 0
-68 -69 0
-59 69 70 0
59 -70 0
-69 -70 0
59 -69 71 0
-59 -71 0
69 -71 0
70 71 72 0
-70 -72 0
-71 -72 0
54 -72 73 0
-54 -73 0
72 -73 0
-54 72 74 0
54 -74 0
-72 -74 0
73 74 75 0
-73 -75 0
-74 -75 0
-58 -75 76 0
58 -76 0
75 -76 0
-1 -7 77 0
1 -77 0
7 -77 0
-6 77 78 0
6 -78 0
-77 -78 0
78 -79 80 0
-78 -80 0
79 -80 0
-78 79 81 0
78 -81 0
-79 -81 0
80 81 82 0
-80 -82 0
-81 -82 0
76 82 83 0
-76 -83 0
-82 -83 0
58 75 84 0
-58 -84 0
-75 -84 0
83 84 85 0
-83 -85 0
-84 -85 0
-1 -79 86 0
1 -86 0
79 -86 0
-78 86 87 0
78 -87 0
-86 -87 0
87 66 88 0
-87 -88 0
-66 -88 0
-87 -66 89 0
87 -89 0
66 -89 0
88 89 90 0
-88 -90 0
-89 -90 0
71 68 91 0
-71 -91 0
-68 -91 0
-60 62 92 0
60 -92 0
-62 -92 0
92 22 93 0
-92 -93 0
-22 -93 0
93 94 95 0
-93 -95 0
-94 -95 0
-93 -94 96 0
93 -96 0
94 -96 0
95 96 97 0
-95 -97 0
-96 -97 0
97 79 98 0
-97 -98 0
-79 -98 0
-97 -79 99 0
97 -99 0
79 -99 0
98 99 100 0
-98 -100 0
-99 -100 0
-91 100 101 0
91 -101 0
-100 -101 0
91 -100 102 0
-91 -102 0
100 -102 0
101 102 103 0
-101 -103 0
-102 -103 0
74 -103 104 0
-74 -104 0
103 -104 0
-74 103 105 0
74 -105 0
-103 -105 0
104 105 106 0
-104 -106 0
-105 -106 0
90 -106 107 0
-90 -107 0
106 -107 0
85 107 108 0
-85 -108 0
-107 -108 0
-90 106 109 0
90 -109 0
-106 -109 0
108 109 110 0
-108 -110 0
-109 -110 0
-1 -66 111 0
1 -111 0
66 -111 0
-87 111 112 0
87 -112 0
-111 -112 0
112 -46 113 0
-112 -113 0
46 -113 0
-112 46 114 0
112 -114 0
-46 -114 0
113 114 115 0
-113 -115 0
-114 -115 0
102 99 116 0
-102 -116 0
-99 -116 0
-92 94 117 0
92 -117 0
-94 -117 0
117 22 118 0
-117 -118 0
-22 -118 0
118 119 120 0
-118 -120 0
-119 -120 0
-118 -119 121 0
118 -121 0
119 -121 0
120 121 122 0
-120 -122 0
-121 -122 0
122 7 123 0
-122 -123 0
-7 -123 0
-122 -7 124 0
122 -124 0
7 -124 0
123 124 125 0
-123 -125 0
-124 -125 0
-116 125 126 0
116 -126 0
-125 -126 0
116 -125 127 0
-116 -127 0
125 -127 0
126 127 128 0
-126 -128 0
-127 -128 0
105 -128 129 0
-105 -129 0
128 -129 0
-105 128 130 0
105 -130 0
-128 -130 0
129 130 131 0
-129 -131 0
-130 -131 0
-115 -131 132 0
115 -132 0
131 -132 0
110 132 133 0
-110 -133 0
-132 -133 0
115 131 134 0
-115 -134 0
-131 -134 0
133 134 135 0
-133 -135 0
-134 -135 0
-1 -46 136 0
1 -136 0
46 -136 0
-112 136 137 0
112 -137 0
-136 -137 0
137 -27 138 0
-137 -138 0
27 -138 0
-137 27 139 0
137 -139 0
-27 -139 0
138 139 140 0
-138 -140 0
-139 -140 0
127 124 141 0
-127 -141 0
-124 -141 0
-117 119 142 0
117 -142 0
-119 -142 0
142 22 143 0
-142 -143 0
-22 -143 0
143 144 145 0
-143 -145 0
-144 -145 0
-143 -144 146 0
143 -146 0
144 -146 0
145 146 147 0
-145 -147 0
-146 -147 0
147 2 148 0
-147 -148 0
-2 -148 0
-147 -2 149 0
147 -149 0
2 -149 0
148 149 150 0
-148 -150 0
-149 -150 0
-141 150 151 0
141 -151 0
-150 -151 0
141 -150 152 0
-141 -152 0
150 -152 0
151 152 153 0
-151 -153 0
-152 -153 0
130 -153 154 0
-130 -154 0
153 -154 0
-130 153 155 0
130 -155 0
-153 -155 0
154 155 156 0
-154 -156 0
-155 -156 0
-140 -156 157 0
140 -157 0
156 -157 0
135 157 158 0
-135 -158 0
-157 -158 0
140 156 159 0
-140 -159 0
-156 -159 0
158 159 160 0
-158 -160 0
-159 -160 0
160 155 161 0
-160 -161 0
-155 -161 0
-142 22 162 0
142 -162 0
-22 -162 0
-162 144 163 0
162 -163 0
-144 -163 0
-163 4 164 0
163 -164 0
-4 -164 0
163 -4 165 0
-163 -165 0
4 -165 0
164 165 166 0
-164 -166 0
-165 -166 0
152 149 167 0
-152 -167 0
-149 -167 0
166 167 168 0
-166 -168 0
-167 -168 0
-166 -167 169 0
166 -169 0
167 -169 0
168 169 170 0
-168 -170 0
-169 -170 0
-139 -1 171 0
139 -171 0
1 -171 0
170 171 172 0
-170 -172 0
-171 -172 0
-161 172 173 0
161 -173 0
-172 -173 0
-160 -155 174 0
160 -174 0
155 -174 0
-172 -174 175 0
172 -175 0
174 -175 0
173 175 176 0
-173 -176 0
-175 -176 0
-170 -171 177 0
170 -177 0
171 -177 0
-177 174 178 0
177 -178 0
-174 -178 0
-176 178 179 0
176 -179 0
-178 -179 0
179 0
